Set parameter TokenServer to value "hpc-licenses.hpcc.usc.edu"
Set parameter TimeLimit to value 3600
Gurobi Optimizer version 9.5.1 build v9.5.1rc2 (linux64)
Thread count: 20 physical cores, 20 logical processors, using up to 20 threads
Optimize a model with 6007 rows, 4529 columns and 24534 nonzeros
Model fingerprint: 0x7ef477a1
Variable types: 4506 continuous, 23 integer (23 binary)
Coefficient statistics:
  Matrix range     [1e+00, 1e+00]
  Objective range  [9e-04, 1e+00]
  Bounds range     [1e+00, 1e+00]
  RHS range        [1e+00, 1e+02]
Found heuristic solution: objective 255.4945995
Presolve removed 1520 rows and 1515 columns
Presolve time: 0.06s
Presolved: 4487 rows, 3014 columns, 21975 nonzeros
Variable types: 2994 continuous, 20 integer (20 binary)

Root relaxation: objective 2.702957e+02, 2698 iterations, 0.13 seconds (0.13 work units)

    Nodes    |    Current Node    |     Objective Bounds      |     Work
 Expl Unexpl |  Obj  Depth IntInf | Incumbent    BestBd   Gap | It/Node Time

     0     0  270.29568    0    2  255.49460  270.29568  5.79%     -    0s
H    0     0                     260.0332995  270.29568  3.95%     -    0s
     0     0  270.24188    0    2  260.03330  270.24188  3.93%     -    0s
H    0     0                     262.9946980  270.07065  2.69%     -    0s
     0     0  270.07065    0    2  262.99470  270.07065  2.69%     -    0s
     0     0  270.06016    0    2  262.99470  270.06016  2.69%     -    0s
     0     0  269.68093    0    3  262.99470  269.68093  2.54%     -    0s
     0     0  269.66507    0    3  262.99470  269.66507  2.54%     -    0s
     0     0  269.47860    0    3  262.99470  269.47860  2.47%     -    0s
     0     0  269.47860    0    4  262.99470  269.47860  2.47%     -    0s
     0     0  269.47860    0    4  262.99470  269.47860  2.47%     -    0s
     0     0  269.42599    0    4  262.99470  269.42599  2.45%     -    0s
     0     0  269.42243    0    2  262.99470  269.42243  2.44%     -    0s
     0     0  269.41990    0    7  262.99470  269.41990  2.44%     -    0s
H    0     0                     268.2585048  269.41990  0.43%     -    0s
H    0     0                     268.6495318  269.41990  0.29%     -    0s
     0     0  269.23916    0    4  268.64953  269.23916  0.22%     -    0s
     0     0  269.23916    0    4  268.64953  269.23916  0.22%     -    0s
     0     0  268.92818    0    7  268.64953  268.92818  0.10%     -    0s
     0     0  268.92818    0    2  268.64953  268.92818  0.10%     -    1s
     0     0  268.92818    0    2  268.64953  268.92818  0.10%     -    1s
     0     0  268.92818    0    3  268.64953  268.92818  0.10%     -    2s
     0     0  268.92818    0    2  268.64953  268.92818  0.10%     -    2s
     0     0  268.92818    0    4  268.64953  268.92818  0.10%     -    2s
     0     0  268.92818    0    4  268.64953  268.92818  0.10%     -    2s
     0     0  268.92818    0    4  268.64953  268.92818  0.10%     -    2s
     0     0  268.92818    0    7  268.64953  268.92818  0.10%     -    2s
     0     0  268.92818    0    4  268.64953  268.92818  0.10%     -    2s

Cutting planes:
  Gomory: 2
  MIR: 279
  Flow cover: 3
  RLT: 7
  Relax-and-lift: 3

Explored 1 nodes (6162 simplex iterations) in 2.71 seconds (1.22 work units)
Thread count was 20 (of 20 available processors)

Solution count 5: 268.65 268.259 262.995 ... 255.495

Optimal solution found (tolerance 1.00e-04)
Best objective 2.686495317685e+02, best bound 2.686495317685e+02, gap 0.0000%



#########node  1
V1.7
#########node  2
0.1836734693877551,0.8163265306122449
#########node  3
1.0,0.0


Total Solving Time 3.1319851875305176
obj value 268.6495317684586
Policy Regret train (Sum) 9.912030792665206
Best Treatment Found train (%) 57.599999999999994
treatment classification acc train (%) 52.0
Policy Regret test (Sum) 38.72832714295484
Best Treatment Found test (%) 81.04
treatment classification acc test (%) 50.74999999999999
